WARNING: for repeatability, setting FPU to use double precision
============================[ Problem Statistics ]=============================
|                                                                             |
|  Number of variables:        140543                                         |
|  Number of clauses:          190719                                         |
|  Parse time:                   0.08 s                                       |
branch_file: └¦K
|  Simplification time:          0.00 s                                       |
|                                                                             |
===============================================================================
Solved by simplification
restarts              : 0
conflicts             : 0              (0 /sec)
decisions             : 0              (-nan % random) (0 /sec)
propagations          : 113662         (1347856 /sec)
conflict literals     : 0              (-nan % deleted)
Memory used           : 39.84 MB
CPU time              : 0.084328 s

UNSATISFIABLE
